language Essence 1.3

letting bot_end be [990, 86, 992, 42, 85, 22, 991, 87, 24, 968, 2, 21, 20, 946, 1011, 84; int(1..16)]
letting bot_start be [34, 858, 131, 906, 969, 1002, 14, 836, 983, 127, 856, 908, 792, 37, 92, 994; int(1..16)]
letting buffer_col be 2
letting buffer_row be 2
letting corridor_size be 1
letting n_shelves_col be 6
letting n_shelves_row be 21
letting shelf_col_size be 2
letting shelf_row_size be 1
